10
0 1 1 2 2 3 3 4 4 5
1 0 2 1 3 2 4 3 5 4
1 2 0 1 1 2 2 3 3 4
2 1 1 0 2 1 3 2 4 3
2 3 1 2 0 1 1 2 2 3
3 2 2 1 1 0 2 1 3 2
3 4 2 3 1 2 0 1 1 2
4 3 3 2 2 1 1 0 2 1
4 5 3 4 2 3 1 2 0 1
5 4 4 3 3 2 2 1 1 0

9 16 2 0 18 0 42 9 16 9
27 9 1 26 17 9 0 9 26 9
11 0 9 26 41 9 25 9 16 0
11 16 0 9 16 9 18 2 18 17
9 10 0 0 9 17 18 2 9 16
1 1 9 17 31 9 43 2 17 8
34 0 9 9 9 2 9 10 17 7
9 17 1 1 39 0 27 9 9 24
0 17 1 9 18 1 26 8 9 9
16 9 2 17 32 2 2 18 9 9